LengthSchedulingHorizon=3046;
nAttributes=5;
SetupCosts=[[0, 0, 0, 0, 0], [1, 3, 3, 3, 3], [3, 2, 3, 3, 3], [3, 3, 0, 3, 3], [3, 3, 3, 0, 3], [3, 3, 3, 3, 1]];
SetupTimes=[[0, 0, 0, 0, 0], [2, 3, 3, 3, 3], [3, 1, 3, 3, 3], [3, 3, 1, 3, 3], [3, 3, 3, 2, 3], [3, 3, 3, 3, 2]];
nMachines=2;
MinCap=[0, 0];
MaxCap=[14, 11];

initState=[4, 1];
nShifts=2;
ShiftStartTimes = [[517, 631], [76, 2165]];
ShiftEndTimes = [[629, 2919], [1933, 2928]];
nJobs=250;
EligibleMachines = [{2}, {1, 2}, {1}, {1}, {2}, {1}, {1}, {1, 2}, {1, 2}, {2}, {1}, {1}, {1, 2}, {2}, {1}, {1, 2}, {1, 2}, {1, 2}, {1, 2}, {2}, {1, 2}, {1, 2}, {1, 2}, {1, 2}, {1, 2}, {1}, {2}, {2}, {1}, {1, 2}, {2}, {2}, {2}, {1}, {1, 2}, {1, 2}, {2}, {2}, {1}, {1}, {1, 2}, {2}, {1, 2}, {2}, {1, 2}, {1, 2}, {1}, {1}, {2}, {1, 2}, {1, 2}, {1, 2}, {1}, {1, 2}, {1}, {1, 2}, {1}, {1, 2}, {2}, {1, 2}, {1}, {2}, {2}, {2}, {1}, {1, 2}, {1, 2}, {1, 2}, {1}, {1}, {1}, {1, 2}, {1}, {2}, {1, 2}, {2}, {2}, {1, 2}, {1}, {1}, {1, 2}, {1, 2}, {1, 2}, {1}, {2}, {1, 2}, {1, 2}, {2}, {2}, {2}, {2}, {2}, {2}, {1}, {2}, {2}, {1, 2}, {1, 2}, {2}, {1, 2}, {1, 2}, {1}, {1, 2}, {1, 2}, {1}, {1}, {1, 2}, {1, 2}, {1}, {2}, {1, 2}, {1, 2}, {1, 2}, {1, 2}, {1, 2}, {2}, {1, 2}, {1}, {1, 2}, {1}, {1, 2}, {2}, {2}, {1, 2}, {1, 2}, {1, 2}, {1}, {1, 2}, {1, 2}, {1, 2}, {1, 2}, {2}, {1}, {1, 2}, {1, 2}, {2}, {1, 2}, {1, 2}, {1}, {1, 2}, {1, 2}, {2}, {1, 2}, {2}, {1, 2}, {1}, {1, 2}, {1}, {2}, {2}, {2}, {2}, {1}, {2}, {1, 2}, {2}, {1, 2}, {2}, {1}, {1}, {1, 2}, {2}, {1, 2}, {1, 2}, {1}, {1, 2}, {2}, {1}, {1, 2}, {1, 2}, {2}, {1}, {1}, {2}, {1, 2}, {1}, {2}, {1}, {1, 2}, {2}, {2}, {2}, {1}, {1, 2}, {2}, {1, 2}, {1, 2}, {1}, {1, 2}, {1}, {1, 2}, {1, 2}, {1, 2}, {1}, {2}, {1}, {1, 2}, {2}, {2}, {1}, {1, 2}, {1}, {1, 2}, {1}, {2}, {1, 2}, {2}, {1}, {1}, {2}, {1}, {2}, {1, 2}, {1}, {2}, {1, 2}, {2}, {1}, {1}, {1, 2}, {2}, {1, 2}, {1}, {1, 2}, {1, 2}, {1, 2}, {1, 2}, {1, 2}, {1}, {1, 2}, {1, 2}, {1, 2}, {1, 2}, {1}, {1}, {2}, {1, 2}, {2}, {2}, {1, 2}, {2}, {1, 2}, {1, 2}, {1}, {1}, {1, 2}, {1, 2}, {2}, {1}, {1, 2}];
EarliestStart=[5, 143, 12, 118, 9, 31, 28, 133, 22, 110, 31, 65, 90, 0, 62, 35, 56, 61, 32, 35, 17, 25, 5, 81, 118, 80, 88, 6, 135, 67, 24, 116, 57, 52, 28, 125, 51, 127, 139, 92, 23, 5, 55, 128, 140, 134, 72, 106, 8, 56, 134, 118, 86, 78, 143, 123, 137, 75, 0, 73, 86, 22, 142, 99, 86, 59, 7, 37, 116, 81, 127, 72, 65, 84, 12, 12, 113, 21, 84, 127, 7, 125, 141, 78, 76, 49, 30, 123, 52, 49, 131, 120, 127, 66, 5, 0, 6, 100, 42, 81, 127, 34, 134, 71, 72, 62, 53, 2, 66, 131, 9, 116, 134, 16, 65, 104, 25, 64, 22, 36, 28, 28, 129, 67, 93, 7, 89, 143, 78, 11, 5, 12, 122, 3, 0, 117, 135, 69, 5, 14, 140, 28, 57, 65, 39, 15, 130, 110, 0, 45, 119, 86, 78, 5, 52, 98, 49, 67, 121, 65, 116, 53, 68, 54, 125, 140, 138, 130, 16, 91, 113, 99, 58, 8, 40, 0, 115, 63, 27, 78, 21, 122, 142, 33, 36, 63, 78, 116, 95, 45, 68, 68, 92, 83, 41, 86, 104, 2, 84, 43, 21, 143, 93, 53, 75, 20, 27, 70, 109, 51, 127, 130, 39, 42, 44, 138, 55, 34, 18, 62, 61, 21, 34, 114, 23, 45, 6, 118, 110, 97, 40, 112, 122, 128, 57, 21, 28, 89, 101, 15, 35, 8, 6, 44, 62, 81, 28, 49, 39, 47];
LatestEnd=[13, 160, 41, 132, 28, 33, 54, 160, 57, 148, 52, 69, 121, 26, 72, 65, 84, 93, 40, 46, 38, 28, 24, 101, 124, 83, 108, 9, 138, 80, 27, 123, 66, 84, 53, 142, 63, 131, 149, 95, 46, 41, 78, 159, 149, 150, 102, 138, 51, 62, 138, 127, 92, 83, 154, 131, 183, 79, 29, 95, 94, 43, 155, 133, 114, 90, 31, 73, 120, 119, 132, 78, 73, 98, 25, 19, 126, 41, 93, 139, 13, 148, 149, 82, 90, 66, 53, 156, 70, 64, 148, 124, 140, 90, 10, 12, 31, 106, 51, 110, 155, 82, 148, 99, 102, 70, 86, 24, 77, 137, 27, 144, 147, 19, 90, 105, 29, 79, 43, 69, 66, 67, 132, 75, 106, 10, 127, 154, 83, 32, 18, 13, 134, 20, 11, 121, 162, 78, 7, 33, 160, 41, 80, 70, 59, 41, 134, 126, 5, 61, 132, 94, 91, 17, 89, 111, 87, 76, 147, 73, 135, 63, 80, 98, 133, 153, 156, 146, 56, 104, 120, 110, 67, 23, 61, 6, 127, 74, 64, 93, 28, 142, 159, 69, 40, 64, 90, 142, 112, 57, 92, 77, 111, 101, 45, 106, 134, 28, 88, 72, 37, 176, 112, 95, 83, 54, 54, 79, 120, 59, 138, 132, 47, 44, 61, 139, 78, 42, 53, 76, 87, 25, 62, 127, 47, 63, 33, 122, 120, 103, 82, 124, 160, 129, 66, 29, 76, 111, 135, 19, 44, 13, 28, 59, 77, 93, 40, 77, 49, 51];
MinTime=[3, 4, 10, 7, 8, 2, 7, 10, 9, 9, 9, 1, 7, 9, 4, 7, 8, 8, 7, 8, 10, 1, 4, 7, 2, 1, 5, 3, 2, 3, 1, 2, 2, 8, 8, 5, 4, 2, 4, 2, 9, 8, 9, 10, 4, 9, 9, 8, 9, 2, 1, 3, 3, 2, 9, 2, 10, 3, 6, 7, 8, 5, 8, 7, 9, 8, 10, 10, 1, 9, 3, 6, 4, 6, 10, 3, 3, 5, 3, 3, 2, 7, 4, 1, 3, 9, 10, 10, 9, 7, 6, 1, 7, 7, 4, 5, 10, 3, 2, 7, 10, 10, 8, 10, 9, 5, 9, 7, 3, 6, 10, 6, 10, 3, 6, 1, 1, 8, 5, 10, 8, 10, 1, 5, 4, 2, 9, 7, 2, 5, 4, 1, 3, 7, 4, 3, 10, 5, 2, 8, 10, 3, 7, 4, 7, 10, 1, 5, 2, 4, 5, 3, 8, 3, 9, 10, 9, 3, 6, 8, 6, 3, 6, 9, 3, 10, 4, 4, 10, 3, 2, 6, 7, 7, 10, 6, 3, 8, 8, 5, 2, 5, 5, 9, 1, 1, 3, 10, 8, 4, 5, 8, 10, 5, 2, 8, 7, 9, 1, 8, 6, 8, 6, 10, 2, 9, 7, 2, 3, 3, 7, 2, 5, 1, 7, 1, 8, 7, 8, 3, 7, 4, 6, 6, 8, 5, 7, 2, 5, 3, 9, 5, 8, 1, 9, 4, 10, 6, 7, 2, 4, 2, 8, 5, 7, 4, 3, 9, 8, 2];
MaxTime=[10, 10, 10, 10, 10, 10, 10, 10, 10, 10, 10, 10, 10, 10, 10, 10, 10, 10, 10, 10, 10, 10, 10, 10, 10, 10, 10, 10, 10, 10, 10, 10, 10, 10, 10, 10, 10, 10, 10, 10, 10, 10, 10, 10, 10, 10, 10, 10, 10, 10, 10, 10, 10, 10, 10, 10, 10, 10, 10, 10, 10, 10, 10, 10, 10, 10, 10, 10, 10, 10, 10, 10, 10, 10, 10, 10, 10, 10, 10, 10, 10, 10, 10, 10, 10, 10, 10, 10, 10, 10, 10, 10, 10, 10, 10, 10, 10, 10, 10, 10, 10, 10, 10, 10, 10, 10, 10, 10, 10, 10, 10, 10, 10, 10, 10, 10, 10, 10, 10, 10, 10, 10, 10, 10, 10, 10, 10, 10, 10, 10, 10, 10, 10, 10, 10, 10, 10, 10, 10, 10, 10, 10, 10, 10, 10, 10, 10, 10, 10, 10, 10, 10, 10, 10, 10, 10, 10, 10, 10, 10, 10, 10, 10, 10, 10, 10, 10, 10, 10, 10, 10, 10, 10, 10, 10, 10, 10, 10, 10, 10, 10, 10, 10, 10, 10, 10, 10, 10, 10, 10, 10, 10, 10, 10, 10, 10, 10, 10, 10, 10, 10, 10, 10, 10, 10, 10, 10, 10, 10, 10, 10, 10, 10, 10, 10, 10, 10, 10, 10, 10, 10, 10, 10, 10, 10, 10, 10, 10, 10, 10, 10, 10, 10, 10, 10, 10, 10, 10, 10, 10, 10, 10, 10, 10, 10, 10, 10, 10, 10, 10];
JobSize=[1, 5, 4, 4, 3, 1, 1, 5, 3, 2, 5, 2, 4, 3, 4, 5, 2, 5, 4, 1, 3, 3, 1, 2, 4, 4, 2, 5, 5, 1, 3, 4, 1, 3, 5, 2, 3, 3, 2, 1, 4, 2, 5, 2, 5, 3, 5, 3, 3, 2, 3, 5, 3, 3, 1, 2, 2, 5, 2, 3, 2, 1, 1, 2, 5, 3, 5, 5, 1, 5, 3, 1, 1, 2, 3, 4, 3, 2, 5, 1, 2, 3, 2, 2, 4, 2, 4, 4, 4, 5, 1, 3, 3, 5, 3, 4, 4, 1, 5, 4, 5, 3, 5, 3, 3, 5, 1, 4, 3, 2, 3, 4, 1, 1, 3, 2, 5, 3, 4, 2, 4, 5, 5, 1, 4, 5, 1, 4, 3, 4, 3, 1, 1, 3, 4, 3, 4, 5, 1, 1, 5, 5, 2, 5, 4, 4, 5, 2, 2, 3, 3, 4, 3, 1, 4, 2, 1, 2, 4, 1, 1, 5, 5, 2, 2, 3, 5, 4, 3, 2, 5, 5, 2, 1, 5, 4, 2, 2, 2, 2, 2, 5, 2, 3, 4, 3, 5, 3, 3, 1, 2, 3, 4, 1, 1, 3, 3, 5, 4, 4, 5, 4, 3, 3, 2, 4, 1, 3, 4, 2, 4, 1, 4, 4, 1, 1, 5, 5, 4, 2, 1, 4, 3, 1, 2, 1, 4, 2, 2, 4, 1, 2, 5, 5, 3, 5, 3, 5, 3, 3, 3, 4, 4, 4, 1, 5, 1, 5, 2, 5];
Attribute=[5, 5, 5, 2, 2, 1, 2, 1, 5, 1, 3, 5, 1, 2, 4, 3, 4, 2, 1, 2, 4, 4, 2, 2, 2, 3, 2, 1, 2, 4, 4, 5, 5, 2, 1, 3, 5, 3, 1, 3, 1, 1, 3, 3, 4, 5, 1, 5, 1, 3, 2, 5, 3, 4, 3, 2, 1, 3, 4, 4, 3, 3, 1, 3, 4, 1, 2, 2, 2, 4, 1, 4, 1, 2, 3, 5, 5, 2, 5, 1, 3, 4, 5, 2, 4, 4, 2, 2, 5, 1, 1, 2, 3, 2, 5, 3, 1, 2, 5, 2, 1, 4, 5, 1, 2, 1, 5, 2, 1, 3, 4, 5, 5, 2, 2, 2, 5, 1, 1, 1, 4, 4, 1, 4, 3, 4, 2, 2, 3, 5, 3, 3, 5, 5, 2, 4, 2, 1, 3, 1, 3, 2, 1, 3, 5, 5, 3, 2, 3, 2, 4, 1, 2, 3, 1, 1, 3, 1, 2, 4, 3, 3, 2, 4, 4, 1, 3, 5, 4, 2, 2, 3, 4, 3, 1, 4, 2, 2, 5, 3, 5, 2, 4, 3, 3, 3, 1, 4, 4, 1, 3, 5, 3, 2, 2, 1, 3, 5, 2, 1, 4, 1, 1, 1, 3, 3, 3, 4, 3, 3, 1, 1, 2, 1, 2, 5, 2, 3, 3, 1, 1, 1, 3, 2, 2, 2, 2, 2, 3, 2, 3, 3, 2, 2, 5, 1, 3, 5, 2, 2, 2, 2, 3, 4, 2, 4, 4, 1, 3, 5];

upper_bound_integer_objective=157500;
mult_factor_total_runtime=4;
mult_factor_finished_toolate=600;
mult_factor_total_setuptimes=0;
mult_factor_total_setupcosts=2;
running_time_bound=1427;
min_duration=1;
max_duration=10;
max_setup_time=3;
max_setup_cost=3;
